p cnf 25 147
-15 -14 -11 12 -13 0
-13 15 12 -11 14 0
7 6 -9 10 8 0
-21 -24 23 25 -22 0
-19 17 -18 16 -20 0
18 17 19 -16 -20 0
9 7 6 10 8 0
6 -10 8 7 -9 0
5 -4 -1 2 3 0
5 19 -10 -12 23 0
-9 7 8 -6 10 0
-24 -22 23 -21 -25 0
15 -12 13 -14 -11 0
3 -2 -5 1 4 0
-16 -20 17 -19 18 0
-5 2 3 4 -1 0
7 -9 -10 -6 8 0
4 -5 -3 -2 -1 0
-15 -14 13 -11 12 0
25 22 -23 -21 24 0
-21 -24 22 -25 23 0
8 9 -7 -6 10 0
22 23 21 -24 25 0
-18 17 -16 19 -20 0
-17 19 18 -20 -16 0
24 -23 -25 -22 -21 0
22 -23 21 25 -24 0
-7 -8 6 10 -9 0
4 -3 5 2 1 0
22 -21 -24 -23 -25 0
14 15 -13 12 11 0
-23 21 -25 22 24 0
10 6 -8 -9 7 0
-10 6 9 8 7 0
5 2 1 -3 -4 0
-18 -17 -16 -19 20 0
24 -21 -22 -23 25 0
2 1 3 5 4 0
-23 22 -21 25 -24 0
-12 -14 13 11 15 0
-2 3 1 4 5 0
-9 -6 -7 8 10 0
2 4 1 -3 -5 0
17 19 16 20 -18 0
-9 8 -10 6 -7 0
23 25 24 -21 -22 0
-25 -21 24 22 -23 0
14 11 -15 13 -12 0
-10 -6 -8 7 9 0
20 15 1 -25 -10 0
-4 -3 5 1 -2 0
-8 10 9 6 7 0
21 23 25 -24 -22 0
11 -15 12 14 -13 0
-2 1 5 -3 4 0
15 11 14 -12 13 0
-6 9 8 7 -10 0
22 23 -25 21 24 0
15 -12 11 -13 -14 0
20 -18 16 -19 17 0
9 6 -7 8 10 0
6 -10 -8 -9 -7 0
-22 21 -23 -25 -24 0
-18 17 19 20 -16 0
-22 24 23 -21 -25 0
-6 -8 10 7 -9 0
-22 23 -25 -24 21 0
-2 -21 -17 11 8 0
-13 -14 -15 -12 11 0
-6 8 9 -7 -10 0
12 -15 13 14 11 0
12 13 -14 15 -11 0
14 19 1 -7 24 0
-16 -17 -20 -18 -19 0
-7 -8 10 -9 -6 0
16 19 -17 -18 -20 0
-23 25 -21 -24 -22 0
-6 -10 -9 -7 8 0
-7 -6 -8 -10 -9 0
22 -24 -25 21 -23 0
12 -11 14 -13 -15 0
-13 12 -14 15 11 0
16 18 -19 -20 17 0
16 -17 -20 18 -19 0
-23 24 -25 21 -22 0
-3 -4 2 5 -1 0
-4 -2 1 -3 -5 0
-2 -5 3 -1 -4 0
-15 12 11 -13 -14 0
-4 -3 2 1 -5 0
-5 2 4 3 1 0
-15 -14 -11 -12 13 0
22 1 -12 -6 -19 0
-13 8 -19 4 22 0
-6 15 -1 16 -25 0
-14 -13 15 -12 -11 0
-10 7 6 -8 -9 0
-12 -11 14 -13 15 0
-7 -9 6 8 10 0
22 -24 25 -21 23 0
-11 13 14 -15 -12 0
15 -12 -11 13 14 0
18 -19 17 20 16 0
9 6 -7 -8 -10 0
23 -22 21 -25 24 0
6 7 9 -8 -10 0
5 -2 -4 -3 -1 0
-15 11 -14 13 -12 0
25 -23 22 21 24 0
22 -21 25 24 23 0
13 12 14 -11 -15 0
21 22 -25 -24 23 0
-13 14 -15 11 -12 0
-17 -19 -16 18 -20 0
-25 -21 22 24 23 0
-18 19 -16 20 -17 0
15 -11 -14 12 -13 0
-13 14 15 -12 11 0
-4 3 1 -2 -5 0
-4 5 -2 -1 3 0
-1 3 4 5 2 0
-24 -25 -21 -23 -22 0
24 25 -22 -23 21 0
19 -18 -20 -16 -17 0
-14 -11 -15 -12 -13 0
8 9 -10 -7 6 0
7 9 -8 10 -6 0
-6 7 -8 -9 -10 0
-21 17 15 -9 3 0
-4 5 3 -2 1 0
-1 6 -18 -12 24 0
16 18 20 19 -17 0
-20 16 -18 -17 -19 0
-14 -15 11 12 13 0
-2 4 3 5 -1 0
-18 19 -17 16 20 0
2 -4 3 1 5 0
7 10 -6 9 8 0
-8 -6 10 -7 9 0
-22 15 18 -3 -10 0
13 14 -11 12 15 0
16 -17 -20 19 18 0
-5 2 1 3 -4 0
16 -17 20 -18 -19 0
24 -22 25 23 21 0
-4 -1 2 -5 3 0
14 12 15 11 13 0
